*SENSE:Minimize
NAME          MODEL
ROWS
 N  OBJ
 E  C0000000
 E  C0000001
 E  C0000002
 E  C0000003
COLUMNS
    MARK      'MARKER'                 'INTORG'
    X0000000  C0000000  -1.000000000000e+00
    X0000000  C0000002   1.000000000000e+00
    X0000000  OBJ        2.000000000000e+00
    MARK      'MARKER'                 'INTEND'
    MARK      'MARKER'                 'INTORG'
    X0000001  C0000001  -1.000000000000e+00
    X0000001  C0000002   1.000000000000e+00
    X0000001  OBJ        6.000000000000e+00
    MARK      'MARKER'                 'INTEND'
    MARK      'MARKER'                 'INTORG'
    X0000002  C0000000   1.000000000000e+00
    X0000002  C0000001  -1.000000000000e+00
    X0000002  OBJ        1.000000000000e+00
    MARK      'MARKER'                 'INTEND'
    MARK      'MARKER'                 'INTORG'
    X0000003  C0000000   1.000000000000e+00
    X0000003  C0000003   1.000000000000e+00
    X0000003  OBJ        5.000000000000e+00
    MARK      'MARKER'                 'INTEND'
    MARK      'MARKER'                 'INTORG'
    X0000004  C0000001   1.000000000000e+00
    X0000004  C0000003   1.000000000000e+00
    X0000004  OBJ        3.000000000000e+00
    MARK      'MARKER'                 'INTEND'
RHS
    RHS       C0000000   0.000000000000e+00
    RHS       C0000001   0.000000000000e+00
    RHS       C0000002   1.000000000000e+00
    RHS       C0000003   1.000000000000e+00
BOUNDS
 BV BND       X0000000
 BV BND       X0000001
 BV BND       X0000002
 BV BND       X0000003
 BV BND       X0000004
ENDATA
